peakDumbCharging = 22200; 
Machine = anon_enum(16); 
machineSpeed = [3700,3700,3700,3700,3700,3700,3700,3700,3700,3700,3700,3700,3700,3700,3700,3700]; 
machineLoad = [3700,3700,3700,3700,3700,3700,3700,3700,3700,3700,3700,3700,3700,3700,3700,3700]; 
Car = anon_enum(36); 
demandCar = [2720,4880,10840,8480,6720,20120,3680,7840,4560,4200,11360,12520,4160,5600,2240,13840,800,4640,4680,7360,5720,8400,3160,5400,240,1720,9000,4840,2920,30280,3440,5520,6920,3960,10640,4240]; 
arrivalCar = [81,72,71,70,66,65,65,64,63,62,61,61,60,60,57,57,56,55,50,50,49,46,46,45,45,43,43,42,42,40,40,40,39,39,32,30]; 
departureCar = [83,77,75,75,69,72,67,68,66,65,66,67,63,62,60,63,58,58,54,64,53,50,49,48,46,45,48,45,45,53,44,43,44,42,38,32]; 
